\ Model Staff Scheduling Problem with Break Time Constraints
\ LP format - for model browsing. Use MPS format to capture full model detail.
Minimize
  82.88794430159821 x[0,0] + 94.48663919830963 x[0,1]
   + 92.97723265647815 x[0,2] + 85.44976405332042 x[0,3]
   + 90.06728541423504 x[0,4] + 49.31279677217734 x[0,5]
   + 23.40221998918061 x[0,6] + 41.79103629785214 x[0,7]
   + 15.7667095006662 x[1,0] + 31.64930511088948 x[1,1]
   + 22.43998194450849 x[1,2] + 86.83746593259502 x[1,3]
   + 11.7082540160985 x[1,4] + 15.18227993089 x[1,5]
   + 33.94039412042939 x[1,6] + 47.33236199841439 x[1,7]
   + 19.01504552330162 x[2,0] + 96.85728542305422 x[2,1]
   + 66.41538808523325 x[2,2] + 12.24400429396811 x[2,3]
   + 16.10301175385196 x[2,4] + 20.48315781766161 x[2,5]
   + 50.22382432942305 x[2,6] + 53.70883129528379 x[2,7]
   + 52.06227579108705 x[3,0] + 92.25364575317872 x[3,1]
   + 13.36156630343427 x[3,2] + 77.41204007684654 x[3,3]
   + 33.64247726426134 x[3,4] + 31.23567744306488 x[3,5]
   + 79.14454277405808 x[3,6] + 59.68311686899529 x[3,7]
   + 83.8492700035963 x[4,0] + 60.66287061688192 x[4,1]
   + 72.9940496922495 x[4,2] + 73.67566724715167 x[4,3]
   + 72.67942550972151 x[4,4] + 61.6751968135865 x[4,5]
   + 38.35422778454532 x[4,6] + 70.09387172589936 x[4,7]
Subject To
 task_0_shift_0: x[0,0] >= 2.103731359158258
 task_0_shift_1: x[0,1] >= 2.864975066779619
 task_0_shift_2: x[0,2] >= 8.25487072172173
 task_0_shift_3: x[0,3] >= 7.630147554969558
 task_0_shift_4: x[0,4] >= 4.713154576603995
 task_0_shift_5: x[0,5] >= 3.068658403332492
 task_0_shift_6: x[0,6] >= 5.043931957988032
 task_0_shift_7: x[0,7] >= 3.485529920987771
 task_1_shift_0: x[1,0] >= 9.488886638058917
 task_1_shift_1: x[1,1] >= 5.400857854313173
 task_1_shift_2: x[1,2] >= 4.814247501243049
 task_1_shift_3: x[1,3] >= 1.383610977972699
 task_1_shift_4: x[1,4] >= 1.118161131826544
 task_1_shift_5: x[1,5] >= 1.876854951016794
 task_1_shift_6: x[1,6] >= 7.540867604551838
 task_1_shift_7: x[1,7] >= 4.296194985731325
 task_2_shift_0: x[2,0] >= 1.966619389751473
 task_2_shift_1: x[2,1] >= 6.334726380365628
 task_2_shift_2: x[2,2] >= 8.815893348143499
 task_2_shift_3: x[2,3] >= 1.973634561656493
 task_2_shift_4: x[2,4] >= 4.084470945140227
 task_2_shift_5: x[2,5] >= 1.547221967362598
 task_2_shift_6: x[2,6] >= 1.759914888138858
 task_2_shift_7: x[2,7] >= 5.575267682835874
 task_3_shift_0: x[3,0] >= 4.677281499480219
 task_3_shift_1: x[3,1] >= 1.914998003978483
 task_3_shift_2: x[3,2] >= 1.484947712402906
 task_3_shift_3: x[3,3] >= 7.413591258694984
 task_3_shift_4: x[3,4] >= 3.989253623167933
 task_3_shift_5: x[3,5] >= 9.71897778980572
 task_3_shift_6: x[3,6] >= 8.316974385321606
 task_3_shift_7: x[3,7] >= 3.589527720586136
 task_4_shift_0: x[4,0] >= 9.729723422052317
 task_4_shift_1: x[4,1] >= 9.584987651407198
 task_4_shift_2: x[4,2] >= 5.428298135862716
 task_4_shift_3: x[4,3] >= 2.795450785824953
 task_4_shift_4: x[4,4] >= 4.605554182639909
 task_4_shift_5: x[4,5] >= 2.027852716569473
 task_4_shift_6: x[4,6] >= 2.768982292883927
 task_4_shift_7: x[4,7] >= 1.156866484032428
 shift_0_availability: x[0,0] + x[1,0] + x[2,0] + x[3,0] + x[4,0]
   <= 28.41057077679539
 shift_1_availability: x[0,1] + x[1,1] + x[2,1] + x[3,1] + x[4,1]
   <= 60.51320754358173
 shift_2_availability: x[0,2] + x[1,2] + x[2,2] + x[3,2] + x[4,2]
   <= 40.03864361276352
 shift_3_availability: x[0,3] + x[1,3] + x[2,3] + x[3,3] + x[4,3]
   <= 99.97828595634228
 shift_4_availability: x[0,4] + x[1,4] + x[2,4] + x[3,4] + x[4,4]
   <= 82.32880829643554
 shift_5_availability: x[0,5] + x[1,5] + x[2,5] + x[3,5] + x[4,5]
   <= 79.93043421233374
 shift_6_availability: x[0,6] + x[1,6] + x[2,6] + x[3,6] + x[4,6]
   <= 64.62664221400161
 shift_7_availability: x[0,7] + x[1,7] + x[2,7] + x[3,7] + x[4,7]
   <= 24.0926023128084
 break_time_0_0: 4.915864844884967 x[0,0] - 4.140402099380085 x[0,1]
   <= -3.830915631824101
 break_time_1_0: 4.915864844884967 x[1,0] - 4.140402099380085 x[1,1]
   <= -3.830915631824101
 break_time_2_0: 4.915864844884967 x[2,0] - 4.140402099380085 x[2,1]
   <= -3.830915631824101
 break_time_3_0: 4.915864844884967 x[3,0] - 4.140402099380085 x[3,1]
   <= -3.830915631824101
 break_time_4_0: 4.915864844884967 x[4,0] - 4.140402099380085 x[4,1]
   <= -3.830915631824101
 break_time_0_1: 4.140402099380085 x[0,1] - 8.734640842326737 x[0,2]
   <= -3.830915631824101
 break_time_1_1: 4.140402099380085 x[1,1] - 8.734640842326737 x[1,2]
   <= -3.830915631824101
 break_time_2_1: 4.140402099380085 x[2,1] - 8.734640842326737 x[2,2]
   <= -3.830915631824101
 break_time_3_1: 4.140402099380085 x[3,1] - 8.734640842326737 x[3,2]
   <= -3.830915631824101
 break_time_4_1: 4.140402099380085 x[4,1] - 8.734640842326737 x[4,2]
   <= -3.830915631824101
 break_time_0_2: 8.734640842326737 x[0,2] - 7.087295176073921 x[0,3]
   <= -3.830915631824101
 break_time_1_2: 8.734640842326737 x[1,2] - 7.087295176073921 x[1,3]
   <= -3.830915631824101
 break_time_2_2: 8.734640842326737 x[2,2] - 7.087295176073921 x[2,3]
   <= -3.830915631824101
 break_time_3_2: 8.734640842326737 x[3,2] - 7.087295176073921 x[3,3]
   <= -3.830915631824101
 break_time_4_2: 8.734640842326737 x[4,2] - 7.087295176073921 x[4,3]
   <= -3.830915631824101
 break_time_0_3: 7.087295176073921 x[0,3] - 5.021378471204455 x[0,4]
   <= -3.830915631824101
 break_time_1_3: 7.087295176073921 x[1,3] - 5.021378471204455 x[1,4]
   <= -3.830915631824101
 break_time_2_3: 7.087295176073921 x[2,3] - 5.021378471204455 x[2,4]
   <= -3.830915631824101
 break_time_3_3: 7.087295176073921 x[3,3] - 5.021378471204455 x[3,4]
   <= -3.830915631824101
 break_time_4_3: 7.087295176073921 x[4,3] - 5.021378471204455 x[4,4]
   <= -3.830915631824101
 break_time_0_4: 5.021378471204455 x[0,4] - 7.330669841657311 x[0,5]
   <= -3.830915631824101
 break_time_1_4: 5.021378471204455 x[1,4] - 7.330669841657311 x[1,5]
   <= -3.830915631824101
 break_time_2_4: 5.021378471204455 x[2,4] - 7.330669841657311 x[2,5]
   <= -3.830915631824101
 break_time_3_4: 5.021378471204455 x[3,4] - 7.330669841657311 x[3,5]
   <= -3.830915631824101
 break_time_4_4: 5.021378471204455 x[4,4] - 7.330669841657311 x[4,5]
   <= -3.830915631824101
 break_time_0_5: 7.330669841657311 x[0,5] - 6.365442583589598 x[0,6]
   <= -3.830915631824101
 break_time_1_5: 7.330669841657311 x[1,5] - 6.365442583589598 x[1,6]
   <= -3.830915631824101
 break_time_2_5: 7.330669841657311 x[2,5] - 6.365442583589598 x[2,6]
   <= -3.830915631824101
 break_time_3_5: 7.330669841657311 x[3,5] - 6.365442583589598 x[3,6]
   <= -3.830915631824101
 break_time_4_5: 7.330669841657311 x[4,5] - 6.365442583589598 x[4,6]
   <= -3.830915631824101
 break_time_0_6: 6.365442583589598 x[0,6] - 5.465567277872237 x[0,7]
   <= -3.830915631824101
 break_time_1_6: 6.365442583589598 x[1,6] - 5.465567277872237 x[1,7]
   <= -3.830915631824101
 break_time_2_6: 6.365442583589598 x[2,6] - 5.465567277872237 x[2,7]
   <= -3.830915631824101
 break_time_3_6: 6.365442583589598 x[3,6] - 5.465567277872237 x[3,7]
   <= -3.830915631824101
 break_time_4_6: 6.365442583589598 x[4,6] - 5.465567277872237 x[4,7]
   <= -3.830915631824101
Bounds
End
